SAT
-1 -100 -99 -98 -97 -6 -58 96 -66 90 39 -24 -23 -79 -3 -84 -60 -65 -10 -46 31 -26 -89 -27 49 33 -69 -28 7 52 -42 -74 -5 -53 76 17 57 -20 67 -77 92 -59 -12 94 54 86 71 8 56 95 72 -91 -15 51 -22 40 -68 85 82 30 73 -83 -62 -81 75 38 -47 48 -87 -13 64 63 -35 -88 78 -93 -43 -2 -61 -70 -55 -18 11 21 -25 37 34 -41 -29 -80 -14 36 16 19 -4 -44 -32 9 -45 50 0
